
se = 80; % nombre de sessions
gr = 40; % nombre de grups de treball
cl = 12; % nombre de slots
minPapersPerSlot = 3; % minim nombre d'articles per sessio i slot
maxSesionsPar = 20; % maxim nombre de sessions paraleles

npMax = [5, 4, 5, 6, 5, 5, 4, 5, 3, 5, 4, 4]; % nombre maxim de papers per slot

np = [11, 14, 5, 3, 3, 17, 3, 9, 4, 5, 4, 17, 17, 3, 14, 16, 14, 3, 15, 3, 4, 18, 14, 12, 10, 3, 15, 6, 18, 17, 3, 13, 4, 15, 15, 10, 4, 16, 3, 17, 3, 13, 16, 8, 13, 5, 3, 5, 9, 10, 3, 12, 3, 15, 8, 18, 4, 11, 3, 11, 6, 19, 16, 16, 13, 4, 18, 15, 9, 3, 8, 14, 5, 8, 13, 10, 14, 3, 3, 3]; % nombre de papers acceptats a cada sessio

WG = [ {}, {1,2}, {3}, {4,5,6}, {7,8,9}, {}, {10}, {}, {}, {11}, {}, {12,13,14}, {15}, {16,17}, {18}, {}, {}, {}, {19}, {20,21,22}, {23,24}, {}, {25}, {26,27}, {}, {}, {28}, {29}, {30}, {31,32}, {33}, {}, {}, {34,35,36}, {37,38}, {}, {}, {}, {39}, {}, {40,1,2}, {}, {3,4,5}, {}, {6}, {}, {7,8}, {9}, {10}, {11}, {12,13,14}, {15,16}, {17}, {}, {18,19,20}, {}, {}, {}, {21,22}, {23}, {24}, {}, {}, {25}, {26}, {27}, {}, {}, {}, {28}, {}, {}, {29}, {30}, {31,32,33}, {}, {34}, {35}, {36}, {37} ]; % grups per sessio

